[VALIDATOR STDOUT]
Checking plan: /home/jfan5/Safety-gen/runs/benchmark/optic/grippers_20260205_114054/grippers/optic_results/grippers-n2-r16-o14-s14001.plan
Plan executed successfully - checking goal
Plan valid
Final value: 55 

Successful plans:
Value: 55
 /home/jfan5/Safety-gen/runs/benchmark/optic/grippers_20260205_114054/grippers/optic_results/grippers-n2-r16-o14-s14001.plan 55
